data;


param d:= 100;
param r:=5;
param p:=0.820000;
param M:=1000;
param U:=
         1         1       -2.479259e-01
         2         1        3.148967e-01
         3         1       -1.002109e+00
         4         1       -1.824911e-02
         5         1       -4.260986e-01
         6         1        2.696394e-01
         7         1       -2.855008e-01
         8         1        4.340515e-03
         9         1       -5.509241e-01
        10         1        2.036733e+00
        11         1       -1.561983e-01
        12         1        9.264677e-01
        13         1       -5.024592e-01
        14         1       -1.790660e+00
        15         1        1.147216e+00
        16         1       -1.427995e+00
        17         1        2.404630e-01
        18         1       -2.417862e+00
        19         1        3.481111e-01
        20         1       -1.122263e+00
        21         1        1.233219e+00
        22         1       -1.170398e+00
        23         1       -6.131352e-01
        24         1        2.546053e+00
        25         1       -1.301582e+00
        26         1        1.523617e-01
        27         1        1.259885e+00
        28         1       -2.099892e-01
        29         1       -4.780932e-01
        30         1        1.823610e+00
        31         1        8.144072e-01
        32         1       -1.120790e-01
        33         1        7.121961e-01
        34         1        7.549881e-01
        35         1        1.630319e+00
        36         1        9.930414e-01
        37         1        3.362225e-01
        38         1       -1.325100e+00
        39         1        8.063713e-01
        40         1       -1.038021e-01
        41         1        4.408119e-01
        42         1       -9.457634e-01
        43         1        4.469209e-01
        44         1        1.190319e+00
        45         1       -1.071348e+00
        46         1       -4.799711e-01
        47         1       -4.761707e-01
        48         1       -1.735576e+00
        49         1       -2.925020e+00
        50         1        6.563814e-01
        51         1        1.262645e+00
        52         1        1.112534e+00
        53         1        9.095508e-02
        54         1        8.878581e-01
        55         1        2.823133e-01
        56         1        1.594045e+00
        57         1        1.247251e+00
        58         1        1.214631e+00
        59         1        1.361694e-01
        60         1       -7.670212e-01
        61         1        3.569013e-01
        62         1       -1.500626e+00
        63         1        6.715063e-01
        64         1        1.035778e-01
        65         1        7.039476e-01
        66         1       -5.577223e-01
        67         1        6.852119e-01
        68         1       -3.775961e-01
        69         1        1.084935e+00
        70         1        2.270525e+00
        71         1        1.752588e+00
        72         1       -8.375370e-02
        73         1       -7.924577e-01
        74         1       -5.407982e-01
        75         1       -1.260191e+00
        76         1       -2.020490e+00
        77         1        4.308889e-01
        78         1        1.499606e+00
        79         1        1.383699e+00
        80         1        2.986544e-01
        81         1        1.338506e+00
        82         1        3.764601e-01
        83         1        1.067855e+00
        84         1        9.665110e-01
        85         1        4.250412e-01
        86         1        7.937972e-01
        87         1       -6.205709e-01
        88         1       -4.069925e-01
        89         1        6.309436e-01
        90         1        1.058614e+00
        91         1        2.271314e-01
        92         1        3.199417e+00
        93         1        1.600732e-01
        94         1        1.614802e+00
        95         1       -3.841653e-01
        96         1       -7.699765e-01
        97         1       -3.186177e-01
        98         1        8.071416e-01
        99         1       -8.237091e-02
       100         1       -5.777492e-01
         1         2       -7.448745e-01
         2         2       -1.349270e+00
         3         2        3.950907e-01
         4         2        6.839212e-01
         5         2        1.516257e+00
         6         2        5.213558e-01
         7         2       -1.125972e+00
         8         2       -2.792149e-01
         9         2        1.775270e+00
        10         2       -2.860640e-01
        11         2       -5.439027e-01
        12         2       -1.302364e+00
        13         2        5.684351e-01
        14         2       -1.169864e+00
        15         2       -1.835948e+00
        16         2       -1.449973e+00
        17         2       -1.973438e-01
        18         2       -5.870433e-01
        19         2       -3.790449e-02
        20         2        2.371711e-01
        21         2        1.523530e+00
        22         2        1.075981e+00
        23         2       -5.937517e-01
        24         2       -1.876564e-02
        25         2        8.295793e-01
        26         2       -8.454316e-01
        27         2       -1.999633e+00
        28         2       -1.184868e+00
        29         2        6.560156e-01
        30         2       -4.615918e-01
        31         2        8.122887e-01
        32         2       -9.555429e-02
        33         2        4.950629e-01
        34         2        3.308176e-02
        35         2        1.325723e+00
        36         2        3.224102e-01
        37         2       -1.623581e+00
        38         2        9.338724e-02
        39         2       -3.852110e-01
        40         2       -1.732953e+00
        41         2        5.616835e-01
        42         2       -1.033021e+00
        43         2       -1.413217e+00
        44         2       -1.153834e-02
        45         2        3.235908e-01
        46         2       -7.175459e-01
        47         2       -1.116315e+00
        48         2        1.162152e+00
        49         2       -1.747557e+00
        50         2        5.495952e-01
        51         2       -5.538119e-01
        52         2        6.025447e-01
        53         2        9.044278e-01
        54         2       -1.060664e+00
        55         2       -2.246032e-01
        56         2       -8.039003e-01
        57         2       -3.521916e-01
        58         2       -3.352533e-02
        59         2       -1.591912e+00
        60         2        1.878333e+00
        61         2        1.761871e-02
        62         2       -8.785711e-01
        63         2        1.889760e-01
        64         2        6.224005e-01
        65         2        3.234927e-01
        66         2        3.869588e-01
        67         2       -3.594280e-01
        68         2        3.266114e-01
        69         2       -2.193426e+00
        70         2        1.139281e+00
        71         2        1.236107e+00
        72         2        1.081766e+00
        73         2       -2.372052e+00
        74         2        5.452235e-01
        75         2        5.979341e-01
        76         2        5.134613e-01
        77         2        1.507056e+00
        78         2       -6.792267e-01
        79         2       -1.095948e+00
        80         2        3.731448e-01
        81         2       -1.401581e+00
        82         2        5.539874e-01
        83         2       -1.396160e-01
        84         2        5.477652e-01
        85         2        7.714707e-01
        86         2       -2.444621e-02
        87         2       -3.606863e-01
        88         2       -1.356719e+00
        89         2       -5.409566e-01
        90         2        2.071726e-02
        91         2        1.030399e+00
        92         2       -1.057658e-01
        93         2       -2.734872e-01
        94         2        1.922889e+00
        95         2       -2.483756e-01
        96         2       -5.213065e-01
        97         2        1.253825e+00
        98         2       -9.590971e-01
        99         2       -1.766647e+00
       100         2        1.020585e+00
         1         3       -1.045571e-01
         2         3       -4.533693e-01
         3         3        7.998189e-01
         4         3       -6.104997e-01
         5         3        2.987790e+00
         6         3       -1.132264e+00
         7         3       -5.112726e-01
         8         3       -7.068945e-03
         9         3        9.591371e-04
        10         3       -7.655258e-01
        11         3        3.800687e-01
        12         3        3.426795e-02
        13         3       -7.074343e-01
        14         3        2.481931e-01
        15         3       -1.496512e+00
        16         3       -3.048269e-01
        17         3        6.503284e-01
        18         3       -2.190757e+00
        19         3       -1.026340e+00
        20         3       -6.556954e-01
        21         3        5.572504e-01
        22         3        1.038746e+00
        23         3       -1.442512e+00
        24         3       -2.493890e-01
        25         3        4.426999e-01
        26         3       -9.864789e-01
        27         3        1.174420e+00
        28         3       -2.162271e+00
        29         3        2.557218e-01
        30         3       -6.173417e-01
        31         3       -1.975676e-01
        32         3       -3.930802e-01
        33         3        6.321234e-01
        34         3        2.034764e+00
        35         3       -3.459896e-01
        36         3       -7.220839e-01
        37         3        2.832989e-01
        38         3       -8.689337e-01
        39         3       -8.893755e-01
        40         3        1.054907e+00
        41         3       -1.564542e+00
        42         3        2.084845e-01
        43         3        2.786250e-01
        44         3       -1.241723e+00
        45         3        1.234380e+00
        46         3        1.446667e+00
        47         3       -2.742760e-01
        48         3       -1.227920e-01
        49         3       -2.679557e-02
        50         3       -6.227907e-01
        51         3       -9.994423e-01
        52         3        6.767330e-01
        53         3       -5.734677e-01
        54         3       -2.350802e-01
        55         3       -8.092901e-01
        56         3       -9.775544e-01
        57         3        1.324329e+00
        58         3        1.164648e+00
        59         3        2.286162e-01
        60         3       -1.504483e+00
        61         3       -6.124140e-01
        62         3        2.879119e-01
        63         3       -2.450425e-01
        64         3        3.023652e-01
        65         3        3.366219e-01
        66         3       -1.181815e+00
        67         3        2.027735e-01
        68         3        4.393320e-01
        69         3        8.499956e-01
        70         3       -4.644605e-01
        71         3       -7.846953e-01
        72         3        8.321515e-01
        73         3       -6.467774e-01
        74         3       -1.429415e+00
        75         3       -1.225410e+00
        76         3       -5.500493e-01
        77         3       -9.502756e-01
        78         3       -4.665490e-01
        79         3        2.137438e-01
        80         3       -5.936904e-01
        81         3        2.057243e+00
        82         3       -7.571398e-01
        83         3       -3.379739e-02
        84         3        5.323781e-01
        85         3        1.515364e+00
        86         3        9.134523e-02
        87         3        1.400255e-01
        88         3        2.053838e+00
        89         3       -8.601288e-01
        90         3        1.482611e+00
        91         3       -4.967557e-01
        92         3       -8.314251e-01
        93         3       -1.063144e+00
        94         3       -1.835032e+00
        95         3       -8.001460e-01
        96         3        5.132914e-01
        97         3        1.297756e+00
        98         3        6.204385e-01
        99         3       -1.069790e+00
       100         3        9.953188e-01
         1         4        1.214874e+00
         2         4       -1.184127e+00
         3         4       -1.883347e+00
         4         4        2.565037e-01
         5         4       -1.911976e-01
         6         4        4.519544e-01
         7         4       -3.640748e-01
         8         4       -1.843837e+00
         9         4        9.213279e-01
        10         4        4.365797e-01
        11         4        6.764284e-01
        12         4       -4.874926e-01
        13         4       -2.303187e+00
        14         4        2.737135e-01
        15         4        2.907491e-01
        16         4        1.945984e-01
        17         4       -5.283012e-01
        18         4        1.084012e+00
        19         4        2.036790e+00
        20         4       -1.451818e+00
        21         4       -1.062306e+00
        22         4        9.575630e-01
        23         4        8.563783e-01
        24         4       -1.376575e+00
        25         4        1.178768e+00
        26         4        2.702400e+00
        27         4        1.091275e+00
        28         4        4.808729e-01
        29         4        5.564544e-01
        30         4       -1.409814e+00
        31         4        6.051487e-01
        32         4        1.288379e-01
        33         4       -5.543289e-02
        34         4        3.301882e-01
        35         4       -1.143173e+00
        36         4        8.542967e-01
        37         4        8.859792e-01
        38         4        1.706922e+00
        39         4        5.876562e-01
        40         4        6.927352e-02
        41         4       -5.347210e-01
        42         4       -1.859885e-01
        43         4       -5.225158e-01
        44         4        3.365893e-01
        45         4        1.581825e+00
        46         4        1.278476e+00
        47         4        1.373029e+00
        48         4       -1.280829e+00
        49         4        6.810402e-01
        50         4       -2.657196e+00
        51         4        3.616331e-01
        52         4        1.106629e+00
        53         4        5.225491e-01
        54         4       -1.675248e+00
        55         4       -2.159167e-01
        56         4        5.282550e-01
        57         4        1.722596e+00
        58         4       -6.569987e-01
        59         4        1.517693e+00
        60         4       -3.032640e+00
        61         4        5.089367e-01
        62         4        1.505335e+00
        63         4        2.352918e+00
        64         4       -7.878649e-01
        65         4       -5.043810e-01
        66         4        1.532067e+00
        67         4        2.905717e-01
        68         4       -3.525120e-01
        69         4        1.512885e+00
        70         4       -1.889616e+00
        71         4        9.136528e-01
        72         4       -2.340648e+00
        73         4       -8.118803e-01
        74         4        1.434084e-01
        75         4       -8.122525e-01
        76         4       -1.627207e-01
        77         4        5.467359e-01
        78         4        1.528822e-01
        79         4       -2.136652e+00
        80         4       -1.081651e-01
        81         4       -2.460373e-01
        82         4        3.637813e-01
        83         4        8.372890e-01
        84         4       -1.457410e-01
        85         4       -2.929545e-01
        86         4        8.353389e-01
        87         4       -7.487101e-01
        88         4        7.203472e-01
        89         4       -9.550333e-02
        90         4       -9.090723e-01
        91         4        1.724752e+00
        92         4       -9.726651e-03
        93         4        3.923359e-01
        94         4        2.502190e-02
        95         4        1.326982e+00
        96         4       -2.338301e-01
        97         4        3.436742e-01
        98         4       -2.549628e-01
        99         4       -9.144262e-01
       100         4        1.056607e+00
         1         5       -1.711582e-01
         2         5        8.853339e-01
         3         5       -9.805820e-01
         4         5        9.109415e-01
         5         5       -6.570867e-01
         6         5        9.404349e-01
         7         5        2.828144e+00
         8         5       -1.356836e+00
         9         5        6.029850e-02
        10         5       -1.829682e+00
        11         5        2.347944e-01
        12         5        1.156102e+00
        13         5       -4.882044e-01
        14         5       -3.134878e-02
        15         5        1.646516e-01
        16         5       -5.806605e-02
        17         5        7.783073e-01
        18         5       -6.097006e-01
        19         5       -5.686176e-01
        20         5        1.009506e+00
        21         5        2.401140e-01
        22         5        1.103586e+00
        23         5       -3.688664e-01
        24         5        1.470894e+00
        25         5       -8.308552e-01
        26         5        9.281779e-01
        27         5        1.529325e+00
        28         5       -2.241810e-01
        29         5        2.729699e-01
        30         5       -1.424679e+00
        31         5       -3.538927e-01
        32         5        1.009402e+00
        33         5       -9.273579e-01
        34         5       -4.134728e-01
        35         5        2.809681e-01
        36         5       -1.451176e+00
        37         5        7.978921e-01
        38         5       -4.540365e-01
        39         5       -4.662202e-01
        40         5       -4.745328e-01
        41         5        2.773897e+00
        42         5        5.998007e-01
        43         5        6.020994e-01
        44         5       -2.991695e-01
        45         5        2.138346e+00
        46         5       -1.225908e+00
        47         5        7.089472e-01
        48         5        4.809669e-01
        49         5       -2.841923e-01
        50         5       -1.879239e-01
        51         5        1.503390e-01
        52         5       -5.707973e-01
        53         5        6.191616e-01
        54         5        1.367922e+00
        55         5       -1.424990e-01
        56         5        9.840577e-02
        57         5        2.524925e-01
        58         5       -3.104020e-01
        59         5       -9.958580e-01
        60         5        5.902462e-01
        61         5       -8.786964e-01
        62         5        1.192951e+00
        63         5       -6.192424e-01
        64         5        5.306417e-01
        65         5        6.113369e-01
        66         5        1.434255e+00
        67         5        8.875546e-01
        68         5       -1.261000e+00
        69         5        8.804459e-01
        70         5        2.288763e-01
        71         5       -8.651472e-01
        72         5       -9.418151e-02
        73         5       -4.945405e-01
        74         5        1.595427e+00
        75         5       -1.822090e-01
        76         5       -2.130925e-04
        77         5       -1.366860e-01
        78         5        1.661174e+00
        79         5       -9.042889e-01
        80         5       -1.848824e+00
        81         5       -8.361989e-02
        82         5        1.150813e+00
        83         5       -6.084916e-01
        84         5        9.462465e-01
        85         5       -6.478965e-01
        86         5        1.211697e+00
        87         5        6.062901e-01
        88         5        7.280475e-01
        89         5        1.294382e+00
        90         5        3.091299e-01
        91         5       -1.863324e-01
        92         5       -5.302271e-01
        93         5        5.991064e-01
        94         5       -1.278465e+00
        95         5       -1.704169e+00
        96         5       -4.957783e-01
        97         5       -8.362647e-01
        98         5       -6.304699e-01
        99         5       -2.977004e-01
       100         5       -4.185460e-01
;

param theta:=
    1       -1.940275e+00
    2        2.974174e-01
    3        1.996601e-01
    4       -1.494501e+00
    5       -1.097342e-03
;
param X_true:=
    1       -1.785208e+00
    2        6.099315e-01
    3        5.053804e+00
    4       -3.604319e-01
    5        2.332926e+00
    6       -1.325726e+00
    7        7.619199e-01
    8        2.605335e+00
    9        3.354901e-01
   10       -5.004252e+00
   11       -7.684185e-01
   12       -1.478004e+00
   13        4.421769e+00
   14        2.690970e+00
   15       -3.519983e+00
   16        2.275615e+00
   17        4.747585e-01
   18        2.528227e+00
   19       -4.044641e+00
   20        4.220062e+00
   21       -2.831709e-01
   22        1.525916e+00
   23       -6.192919e-01
   24       -2.982470e+00
   25        1.100500e+00
   26       -4.949080e+00
   27       -4.449207e+00
   28       -1.309633e+00
   29        2.766261e-01
   30       -1.681855e+00
   31       -2.304133e+00
   32       -2.861234e-02
   33       -1.103279e+00
   34       -1.486334e+00
   35       -1.162328e+00
   36       -3.222691e+00
   37       -2.571035e+00
   38       -8.547675e-02
   39       -2.689064e+00
   40       -6.648322e-02
   41       -1.622445e-01
   42        1.624914e+00
   43       -6.251287e-01
   44       -3.243854e+00
   45       -2.445810e-02
   46       -7.519191e-01
   47       -1.382766e+00
   48        5.501558e+00
   49        4.092936e+00
   50        2.714040e+00
   51       -3.342506e+00
   52       -3.525611e+00
   53       -7.288940e-01
   54        4.471063e-01
   55       -4.504832e-01
   56       -4.459212e+00
   57       -4.787656e+00
   58       -9.828403e-01
   59       -3.036643e+00
   60        6.040792e+00
   61       -1.720694e+00
   62        3.136111e-01
   63       -4.780834e+00
   64        1.379449e+00
   65       -3.584621e-01
   66       -1.376910e+00
   67       -1.793443e+00
   68        1.405895e+00
   69       -4.814386e+00
   70       -1.263240e+00
   71       -4.344859e+00
   72        4.223624e+00
   73        2.042373e+00
   74        7.829057e-01
   75        3.625876e+00
   76        4.317175e+00
   77       -1.484893e+00
   78       -3.524241e+00
   79        2.683360e-01
   80       -5.142847e-01
   81       -2.148218e+00
   82       -1.013286e+00
   83       -3.401870e+00
   84       -1.443589e+00
   85        3.410171e-01
   86       -2.643018e+00
   87        2.116145e+00
   88       -2.550673e-01
   89       -1.460835e+00
   90       -3.613434e-01
   91       -2.691905e+00
   92       -6.407830e+00
   93       -1.112000e+00
   94       -2.733682e+00
   95       -1.560092e+00
   96        1.761599e+00
   97        6.308524e-01
   98       -1.314622e+00
   99        8.890918e-01
  100       -6.777863e-02
;
param X:=
    1        7.092349e-01
    2       -5.005692e-01
    3        2.275539e+00
    4        3.276042e-01
    5        7.752359e-01
    6        1.225366e+00
    7        7.619199e-01
    8        5.944654e-01
    9       -2.387248e+00
   10        1.590785e+00
   11        8.807554e-01
   12        6.829791e-01
   13        1.128494e+00
   14       -7.083206e-01
   15       -3.519983e+00
   16       -6.121004e-01
   17       -2.999007e-01
   18        4.928586e-01
   19        8.200615e-01
   20       -1.117624e+00
   21       -1.278511e+00
   22        2.156347e-01
   23        8.327011e-01
   24       -1.026502e+00
   25       -1.498920e+00
   26       -4.949080e+00
   27       -4.449207e+00
   28       -1.309633e+00
   29        2.766261e-01
   30        4.657682e-01
   31       -5.032868e-01
   32       -2.861234e-02
   33        2.787616e-01
   34        4.563955e-01
   35       -1.162328e+00
   36       -1.104702e+00
   37       -2.571035e+00
   38        1.104484e+00
   39        4.562654e-02
   40        2.505474e+00
   41       -6.073169e-01
   42        1.624914e+00
   43        6.015357e-01
   44       -3.002030e-01
   45        2.660155e-01
   46        1.050438e+00
   47       -7.405821e-01
   48       -1.070458e+00
   49        2.073862e+00
   50        4.637992e-01
   51       -3.342506e+00
   52       -3.525611e+00
   53        1.302176e+00
   54        4.471063e-01
   55        2.626722e-01
   56       -1.528394e-01
   57        1.049431e+00
   58       -7.753756e-01
   59       -1.104249e+00
   60       -2.764107e-01
   61       -6.235045e-01
   62       -6.478283e-01
   63       -1.090363e+00
   64        1.379449e+00
   65       -1.318765e-01
   66       -1.108689e+00
   67       -7.103433e-02
   68        4.057715e-01
   69       -1.058783e+00
   70       -3.425301e-01
   71       -4.344859e+00
   72       -1.382711e+00
   73        3.345755e-02
   74       -1.342683e+00
   75       -1.435482e+00
   76        1.302338e-01
   77       -1.484893e+00
   78        7.254216e-01
   79       -4.699978e-01
   80        9.253765e-02
   81       -2.148218e+00
   82       -1.200953e+00
   83       -1.143712e+00
   84       -1.443589e+00
   85        2.570277e-01
   86       -1.543909e+00
   87       -3.917254e-01
   88        9.407904e-01
   89       -1.384077e+00
   90        1.163317e+00
   91        4.474429e-01
   92       -1.449206e+00
   93        2.406867e-01
   94        1.429420e+00
   95       -5.954405e-01
   96        3.213298e-01
   97       -1.724697e+00
   98        1.370763e+00
   99       -1.917950e+00
  100       -7.759360e-01
;
param outliervec:=
    1    1
    2    1
    3    1
    4    1
    5    1
    6    1
    7    0
    8    1
    9    1
   10    1
   11    1
   12    1
   13    1
   14    1
   15    0
   16    1
   17    1
   18    1
   19    1
   20    1
   21    1
   22    1
   23    1
   24    1
   25    1
   26    0
   27    0
   28    0
   29    0
   30    1
   31    1
   32    0
   33    1
   34    1
   35    0
   36    1
   37    0
   38    1
   39    1
   40    1
   41    1
   42    0
   43    1
   44    1
   45    1
   46    1
   47    1
   48    1
   49    1
   50    1
   51    0
   52    0
   53    1
   54    0
   55    1
   56    1
   57    1
   58    1
   59    1
   60    1
   61    1
   62    1
   63    1
   64    0
   65    1
   66    1
   67    1
   68    1
   69    1
   70    1
   71    0
   72    1
   73    1
   74    1
   75    1
   76    1
   77    0
   78    1
   79    1
   80    1
   81    0
   82    1
   83    1
   84    0
   85    1
   86    1
   87    1
   88    1
   89    1
   90    1
   91    1
   92    1
   93    1
   94    1
   95    1
   96    1
   97    1
   98    1
   99    1
  100    1
;